p cnf 115 273
1 0
11 12 0
-11 -12 0
13 14 0
-13 -14 0
-10 11 0
-10 13 0
10 -11 -13 0
16 -12 0
-16 12 0
17 14 0
-17 -14 0
-15 16 0
-15 17 0
15 -16 -17 0
9 -10 0
9 -15 0
-9 10 15 0
20 21 0
-20 -21 0
22 23 0
-22 -23 0
-19 20 0
-19 22 0
19 -20 -22 0
25 -21 0
-25 21 0
26 23 0
-26 -23 0
-24 25 0
-24 26 0
24 -25 -26 0
18 -19 0
18 -24 0
-18 19 24 0
-8 9 0
-8 18 0
8 -9 -18 0
29 30 0
-29 -30 0
31 32 0
-31 -32 0
-28 29 0
-28 31 0
28 -29 -31 0
34 -30 0
-34 30 0
35 32 0
-35 -32 0
-33 34 0
-33 35 0
33 -34 -35 0
27 -28 0
27 -33 0
-27 28 33 0
-7 8 0
-7 27 0
7 -8 -27 0
-36 7 0
36 -7 0
6 -7 0
6 -36 0
-6 7 36 0
-37 7 0
37 -7 0
5 -6 0
5 -37 0
-5 6 37 0
-41 33 0
41 -33 0
-42 15 0
42 -15 0
-40 41 0
-40 42 0
40 -41 -42 0
45 30 0
-45 -30 0
46 -32 0
-46 32 0
-44 45 0
-44 46 0
44 -45 -46 0
-47 15 0
47 -15 0
-43 44 0
-43 47 0
43 -44 -47 0
39 -40 0
39 -43 0
-39 40 43 0
-49 28 0
49 -28 0
51 12 0
-51 -12 0
52 -14 0
-52 14 0
-50 51 0
-50 52 0
50 -51 -52 0
-48 49 0
-48 50 0
48 -49 -50 0
38 -39 0
38 -48 0
-38 39 48 0
-4 5 0
-4 38 0
4 -5 -38 0
-56 7 0
56 -7 0
-58 18 0
58 -18 0
-59 27 0
59 -27 0
-57 58 0
-57 59 0
57 -58 -59 0
55 -56 0
55 -57 0
-55 56 57 0
-60 57 0
60 -57 0
54 -55 0
54 -60 0
-54 55 60 0
-64 33 0
64 -33 0
-65 24 0
65 -24 0
-63 64 0
-63 65 0
63 -64 -65 0
-67 44 0
67 -44 0
-68 24 0
68 -24 0
-66 67 0
-66 68 0
66 -67 -68 0
62 -63 0
62 -66 0
-62 63 66 0
-70 28 0
70 -28 0
72 21 0
-72 -21 0
73 -23 0
-73 23 0
-71 72 0
-71 73 0
71 -72 -73 0
-69 70 0
-69 71 0
69 -70 -71 0
61 -62 0
61 -69 0
-61 62 69 0
-53 54 0
-53 61 0
53 -54 -61 0
3 -4 0
3 -53 0
-3 4 53 0
-76 55 0
76 -55 0
-77 27 0
77 -27 0
75 -76 0
75 -77 0
-75 76 77 0
-81 33 0
81 -33 0
-82 33 0
82 -33 0
-80 81 0
-80 82 0
80 -81 -82 0
-84 44 0
84 -44 0
-85 33 0
85 -33 0
-83 84 0
-83 85 0
83 -84 -85 0
79 -80 0
79 -83 0
-79 80 83 0
-87 28 0
87 -28 0
-88 44 0
88 -44 0
-86 87 0
-86 88 0
86 -87 -88 0
78 -79 0
78 -86 0
-78 79 86 0
-74 75 0
-74 78 0
74 -75 -78 0
2 -3 0
2 -74 0
-2 3 74 0
-94 15 0
94 -15 0
-95 24 0
95 -24 0
-93 94 0
-93 95 0
93 -94 -95 0
-97 50 0
97 -50 0
-98 24 0
98 -24 0
-96 97 0
-96 98 0
96 -97 -98 0
92 -93 0
92 -96 0
-92 93 96 0
-100 10 0
100 -10 0
-101 71 0
101 -71 0
-99 100 0
-99 101 0
99 -100 -101 0
91 -92 0
91 -99 0
-91 92 99 0
-105 24 0
105 -24 0
-106 33 0
106 -33 0
-104 105 0
-104 106 0
104 -105 -106 0
-108 71 0
108 -71 0
-109 33 0
109 -33 0
-107 108 0
-107 109 0
107 -108 -109 0
103 -104 0
103 -107 0
-103 104 107 0
-111 19 0
111 -19 0
-112 44 0
112 -44 0
-110 111 0
-110 112 0
110 -111 -112 0
102 -103 0
102 -110 0
-102 103 110 0
-90 91 0
-90 102 0
90 -91 -102 0
-114 10 0
114 -10 0
-115 10 0
115 -10 0
113 -114 0
113 -115 0
-113 114 115 0
-89 90 0
-89 113 0
89 -90 -113 0
-1 2 0
-1 89 0
1 -2 -89 0
